(set-info :source |printed by MathSAT|)
(declare-fun call__PRODUCER_CONSUMMER_.ite7.next () Int)
(declare-fun call__PRODUCER_CONSUMMER_.flby5.next () Int)
(declare-fun call_Sofar.flby () Bool)
(declare-fun i.next () Int)
(declare-fun call__PRODUCER_CONSUMMER_.ite2.next () Int)
(declare-fun call__PRODUCER_CONSUMMER_.ite3 () Int)
(declare-fun call_Sofar.Sofar () Bool)
(declare-fun param_etat1.next () Bool)
(declare-fun call__PRODUCER_CONSUMMER_.o1 () Int)
(declare-fun call_First.flby () Int)
(declare-fun call__PRODUCER_CONSUMMER_.ite6 () Int)
(declare-fun call_First2.First.next () Int)
(declare-fun call__PRODUCER_CONSUMMER_.ite9.next () Int)
(declare-fun call__PRODUCER_CONSUMMER_.o2 () Int)
(declare-fun call__PRODUCER_CONSUMMER_.o1.next () Int)
(declare-fun call_First.First () Int)
(declare-fun call__PRODUCER_CONSUMMER_.flby.next () Int)
(declare-fun call__PRODUCER_CONSUMMER_.i.next () Int)
(declare-fun flby () Bool)
(declare-fun call__PRODUCER_CONSUMMER_.ite7 () Int)
(declare-fun call__PRODUCER_CONSUMMER_.flby4.next () Int)
(declare-fun call__PRODUCER_CONSUMMER_.i () Int)
(declare-fun call__PRODUCER_CONSUMMER_.ite5 () Int)
(declare-fun call__PRODUCER_CONSUMMER_.o2.next () Int)
(declare-fun call__PRODUCER_CONSUMMER_.a () Int)
(declare-fun _OK_ () Bool)
(declare-fun call__PRODUCER_CONSUMMER_.garde1.next () Bool)
(declare-fun call_Sofar.Sofar.next () Bool)
(declare-fun call__PRODUCER_CONSUMMER_.ite10.next () Int)
(declare-fun call__PRODUCER_CONSUMMER_.flby4 () Int)
(declare-fun a.next () Int)
(declare-fun call_First2.flby () Int)
(declare-fun call__PRODUCER_CONSUMMER_.ite3.next () Int)
(declare-fun call__PRODUCER_CONSUMMER_.flby5 () Int)
(declare-fun call_First.First.next () Int)
(declare-fun call_First2.First () Int)
(declare-fun o2 () Int)
(declare-fun param_etat3.next () Bool)
(declare-fun call__PRODUCER_CONSUMMER_.ite5.next () Int)
(declare-fun o1.next () Int)
(declare-fun call__PRODUCER_CONSUMMER_.ite4.next () Int)
(declare-fun _OK_.next () Bool)
(declare-fun call__PRODUCER_CONSUMMER_.flby3 () Int)
(declare-fun env.next () Bool)
(declare-fun call__PRODUCER_CONSUMMER_.flby () Int)
(declare-fun param_etat2.next () Bool)
(declare-fun o1 () Int)
(declare-fun call__PRODUCER_CONSUMMER_.b () Int)
(declare-fun call__PRODUCER_CONSUMMER_.flby2.next () Int)
(declare-fun call__PRODUCER_CONSUMMER_.ite6.next () Int)
(declare-fun call__PRODUCER_CONSUMMER_.ite.next () Int)
(declare-fun call__PRODUCER_CONSUMMER_.a.next () Int)
(declare-fun call_First2.flby.next () Int)
(declare-fun call__PRODUCER_CONSUMMER_.ite8.next () Int)
(declare-fun call__PRODUCER_CONSUMMER_.garde2.next () Bool)
(declare-fun a () Int)
(declare-fun call__PRODUCER_CONSUMMER_.garde3.next () Bool)
(declare-fun param_etat1 () Bool)
(declare-fun param_etat2 () Bool)
(declare-fun flby.next () Bool)
(declare-fun b.next () Int)
(declare-fun b () Int)
(declare-fun call__PRODUCER_CONSUMMER_.ite11.next () Int)
(declare-fun call_Sofar.flby.next () Bool)
(declare-fun call__PRODUCER_CONSUMMER_.flby3.next () Int)
(declare-fun call__PRODUCER_CONSUMMER_.b.next () Int)
(declare-fun call__PRODUCER_CONSUMMER_.flby2 () Int)
(declare-fun o2.next () Int)
(declare-fun env () Bool)
(declare-fun i () Int)
(declare-fun call__PRODUCER_CONSUMMER_.ite4 () Int)
(declare-fun call_First.flby.next () Int)
(define-fun .def_656 () Bool (= call_First2.flby.next call_First2.First.next))
(define-fun .def_654 () Bool (= call_First.flby.next call_First.First.next))
(define-fun .def_652 () Bool (= call_Sofar.flby.next call_Sofar.Sofar.next))
(define-fun .def_650 () Bool (= call__PRODUCER_CONSUMMER_.flby5.next call__PRODUCER_CONSUMMER_.o2.next))
(define-fun .def_648 () Bool (= call__PRODUCER_CONSUMMER_.flby4.next call__PRODUCER_CONSUMMER_.o1.next))
(define-fun .def_646 () Bool (= call__PRODUCER_CONSUMMER_.flby3.next call__PRODUCER_CONSUMMER_.a.next))
(define-fun .def_644 () Bool (= call__PRODUCER_CONSUMMER_.flby2.next call__PRODUCER_CONSUMMER_.b.next))
(define-fun .def_642 () Bool (= call__PRODUCER_CONSUMMER_.flby.next call__PRODUCER_CONSUMMER_.i.next))
(define-fun .def_638 () Bool (= call__PRODUCER_CONSUMMER_.ite4.next call__PRODUCER_CONSUMMER_.ite6.next))
(define-fun .def_480 () Bool (not param_etat2.next))
(define-fun .def_639 () Bool (or .def_480 .def_638))
(define-fun .def_636 () Bool (= call__PRODUCER_CONSUMMER_.ite5.next call__PRODUCER_CONSUMMER_.ite6.next))
(define-fun .def_637 () Bool (or param_etat2.next .def_636))
(define-fun .def_640 () Bool (and .def_637 .def_639))
(define-fun .def_632 () Bool (= call__PRODUCER_CONSUMMER_.ite3.next call__PRODUCER_CONSUMMER_.ite7.next))
(define-fun .def_469 () Bool (not param_etat1.next))
(define-fun .def_633 () Bool (or .def_469 .def_632))
(define-fun .def_630 () Bool (= call__PRODUCER_CONSUMMER_.ite7.next call__PRODUCER_CONSUMMER_.ite6.next))
(define-fun .def_631 () Bool (or param_etat1.next .def_630))
(define-fun .def_634 () Bool (and .def_631 .def_633))
(define-fun .def_624 () Bool (<= 10 call_First2.First.next))
(define-fun .def_625 () Bool (not .def_624))
(define-fun .def_620 () Bool (<= call_First.First.next 0))
(define-fun .def_621 () Bool (not .def_620))
(define-fun .def_618 () Bool (and flby.next call_Sofar.Sofar.next))
(define-fun .def_622 () Bool (and .def_618 .def_621))
(define-fun .def_626 () Bool (and .def_622 .def_625))
(define-fun .def_627 () Bool (= env.next .def_626))
(define-fun .def_615 () Bool (= o2.next call__PRODUCER_CONSUMMER_.o2.next))
(define-fun .def_612 () Bool (= o1.next call__PRODUCER_CONSUMMER_.o1.next))
(define-fun .def_609 () Bool (= a.next call__PRODUCER_CONSUMMER_.a.next))
(define-fun .def_605 () Bool (= b.next call__PRODUCER_CONSUMMER_.b.next))
(define-fun .def_601 () Bool (= i.next call__PRODUCER_CONSUMMER_.i.next))
(define-fun .def_596 () Bool (<= 0 o1.next))
(define-fun .def_595 () Bool (not env.next))
(define-fun .def_597 () Bool (or .def_595 .def_596))
(define-fun .def_598 () Bool (= _OK_.next .def_597))
(define-fun .def_602 () Bool (and .def_598 .def_601))
(define-fun .def_606 () Bool (and .def_602 .def_605))
(define-fun .def_610 () Bool (and .def_606 .def_609))
(define-fun .def_613 () Bool (and .def_610 .def_612))
(define-fun .def_616 () Bool (and .def_613 .def_615))
(define-fun .def_628 () Bool (and .def_616 .def_627))
(define-fun .def_635 () Bool (and .def_628 .def_634))
(define-fun .def_641 () Bool (and .def_635 .def_640))
(define-fun .def_643 () Bool (and .def_641 .def_642))
(define-fun .def_645 () Bool (and .def_643 .def_644))
(define-fun .def_647 () Bool (and .def_645 .def_646))
(define-fun .def_649 () Bool (and .def_647 .def_648))
(define-fun .def_651 () Bool (and .def_649 .def_650))
(define-fun .def_653 () Bool (and .def_651 .def_652))
(define-fun .def_655 () Bool (and .def_653 .def_654))
(define-fun .def_657 () Bool (and .def_655 .def_656))
(define-fun .def_460 () Bool (= call_First2.flby call_First2.First))
(define-fun .def_458 () Bool (= call_First.flby call_First.First))
(define-fun .def_456 () Bool (= call_Sofar.flby call_Sofar.Sofar))
(define-fun .def_454 () Bool (= call__PRODUCER_CONSUMMER_.flby5 call__PRODUCER_CONSUMMER_.o2))
(define-fun .def_452 () Bool (= call__PRODUCER_CONSUMMER_.flby4 call__PRODUCER_CONSUMMER_.o1))
(define-fun .def_450 () Bool (= call__PRODUCER_CONSUMMER_.a call__PRODUCER_CONSUMMER_.flby3))
(define-fun .def_448 () Bool (= call__PRODUCER_CONSUMMER_.flby2 call__PRODUCER_CONSUMMER_.b))
(define-fun .def_446 () Bool (= call__PRODUCER_CONSUMMER_.flby call__PRODUCER_CONSUMMER_.i))
(define-fun .def_442 () Bool (= call__PRODUCER_CONSUMMER_.ite6 call__PRODUCER_CONSUMMER_.ite4))
(define-fun .def_350 () Bool (not param_etat2))
(define-fun .def_443 () Bool (or .def_350 .def_442))
(define-fun .def_439 () Bool (= call__PRODUCER_CONSUMMER_.ite6 call__PRODUCER_CONSUMMER_.ite5))
(define-fun .def_440 () Bool (or param_etat2 .def_439))
(define-fun .def_444 () Bool (and .def_440 .def_443))
(define-fun .def_434 () Bool (= call__PRODUCER_CONSUMMER_.ite7 call__PRODUCER_CONSUMMER_.ite3))
(define-fun .def_341 () Bool (not param_etat1))
(define-fun .def_435 () Bool (or .def_341 .def_434))
(define-fun .def_431 () Bool (= call__PRODUCER_CONSUMMER_.ite7 call__PRODUCER_CONSUMMER_.ite6))
(define-fun .def_432 () Bool (or param_etat1 .def_431))
(define-fun .def_436 () Bool (and .def_432 .def_435))
(define-fun .def_424 () Bool (<= 10 call_First2.First))
(define-fun .def_425 () Bool (not .def_424))
(define-fun .def_420 () Bool (<= call_First.First 0))
(define-fun .def_421 () Bool (not .def_420))
(define-fun .def_418 () Bool (and flby call_Sofar.Sofar))
(define-fun .def_422 () Bool (and .def_418 .def_421))
(define-fun .def_426 () Bool (and .def_422 .def_425))
(define-fun .def_427 () Bool (= env .def_426))
(define-fun .def_415 () Bool (= o2 call__PRODUCER_CONSUMMER_.o2))
(define-fun .def_412 () Bool (= o1 call__PRODUCER_CONSUMMER_.o1))
(define-fun .def_409 () Bool (= call__PRODUCER_CONSUMMER_.a a))
(define-fun .def_406 () Bool (= b call__PRODUCER_CONSUMMER_.b))
(define-fun .def_402 () Bool (= i call__PRODUCER_CONSUMMER_.i))
(define-fun .def_397 () Bool (<= 0 o1))
(define-fun .def_396 () Bool (not env))
(define-fun .def_398 () Bool (or .def_396 .def_397))
(define-fun .def_399 () Bool (= _OK_ .def_398))
(define-fun .def_403 () Bool (and .def_399 .def_402))
(define-fun .def_407 () Bool (and .def_403 .def_406))
(define-fun .def_410 () Bool (and .def_407 .def_409))
(define-fun .def_413 () Bool (and .def_410 .def_412))
(define-fun .def_416 () Bool (and .def_413 .def_415))
(define-fun .def_428 () Bool (and .def_416 .def_427))
(define-fun .def_437 () Bool (and .def_428 .def_436))
(define-fun .def_445 () Bool (and .def_437 .def_444))
(define-fun .def_447 () Bool (and .def_445 .def_446))
(define-fun .def_449 () Bool (and .def_447 .def_448))
(define-fun .def_451 () Bool (and .def_449 .def_450))
(define-fun .def_453 () Bool (and .def_451 .def_452))
(define-fun .def_455 () Bool (and .def_453 .def_454))
(define-fun .def_457 () Bool (and .def_455 .def_456))
(define-fun .def_459 () Bool (and .def_457 .def_458))
(define-fun .def_461 () Bool (and .def_459 .def_460))
(define-fun .def_658 () Bool (and .def_461 .def_657))
(define-fun .def_591 () Bool (= call_First2.First call_First2.flby.next))
(define-fun .def_588 () Bool (= call_First.First call_First.flby.next))
(define-fun .def_581 () Bool (<= o2.next 32767))
(define-fun .def_578 () Bool (<= o1.next 32767))
(define-fun .def_575 () Bool (and param_etat2.next param_etat3.next))
(define-fun .def_576 () Bool (not .def_575))
(define-fun .def_579 () Bool (and .def_576 .def_578))
(define-fun .def_582 () Bool (and .def_579 .def_581))
(define-fun .def_583 () Bool (and call_Sofar.Sofar .def_582))
(define-fun .def_585 () Bool (= .def_583 call_Sofar.flby.next))
(define-fun .def_573 () Bool (= call__PRODUCER_CONSUMMER_.ite11.next call__PRODUCER_CONSUMMER_.flby5.next))
(define-fun .def_570 () Bool (= call__PRODUCER_CONSUMMER_.ite9.next call__PRODUCER_CONSUMMER_.flby4.next))
(define-fun .def_567 () Bool (= call__PRODUCER_CONSUMMER_.a call__PRODUCER_CONSUMMER_.flby3.next))
(define-fun .def_564 () Bool (= call__PRODUCER_CONSUMMER_.ite7.next call__PRODUCER_CONSUMMER_.flby2.next))
(define-fun .def_560 () Bool (= call__PRODUCER_CONSUMMER_.ite2.next call__PRODUCER_CONSUMMER_.flby.next))
(define-fun .def_554 () Bool (<= 1 call__PRODUCER_CONSUMMER_.b))
(define-fun .def_557 () Bool (= call__PRODUCER_CONSUMMER_.garde3.next .def_554))
(define-fun .def_555 () Bool (= call__PRODUCER_CONSUMMER_.garde2.next .def_554))
(define-fun .def_551 () Bool (<= 1 call__PRODUCER_CONSUMMER_.i))
(define-fun .def_552 () Bool (= call__PRODUCER_CONSUMMER_.garde1.next .def_551))
(define-fun .def_545 () Int (* (- 1) call__PRODUCER_CONSUMMER_.ite10.next))
(define-fun .def_546 () Int (+ call__PRODUCER_CONSUMMER_.o2 .def_545))
(define-fun .def_547 () Bool (= .def_546 (- 1)))
(define-fun .def_528 () Bool (not call__PRODUCER_CONSUMMER_.garde3.next))
(define-fun .def_548 () Bool (or .def_528 .def_547))
(define-fun .def_543 () Bool (= call__PRODUCER_CONSUMMER_.o2 call__PRODUCER_CONSUMMER_.ite10.next))
(define-fun .def_544 () Bool (or call__PRODUCER_CONSUMMER_.garde3.next .def_543))
(define-fun .def_549 () Bool (and .def_544 .def_548))
(define-fun .def_537 () Int (* (- 1) call__PRODUCER_CONSUMMER_.ite8.next))
(define-fun .def_538 () Int (+ call__PRODUCER_CONSUMMER_.o1 .def_537))
(define-fun .def_539 () Bool (= .def_538 (- 1)))
(define-fun .def_517 () Bool (not call__PRODUCER_CONSUMMER_.garde2.next))
(define-fun .def_540 () Bool (or .def_517 .def_539))
(define-fun .def_535 () Bool (= call__PRODUCER_CONSUMMER_.o1 call__PRODUCER_CONSUMMER_.ite8.next))
(define-fun .def_536 () Bool (or call__PRODUCER_CONSUMMER_.garde2.next .def_535))
(define-fun .def_541 () Bool (and .def_536 .def_540))
(define-fun .def_531 () Bool (= call__PRODUCER_CONSUMMER_.b call__PRODUCER_CONSUMMER_.ite5.next))
(define-fun .def_532 () Bool (or call__PRODUCER_CONSUMMER_.garde3.next .def_531))
(define-fun .def_524 () Int (* (- 1) call__PRODUCER_CONSUMMER_.ite5.next))
(define-fun .def_525 () Int (+ call__PRODUCER_CONSUMMER_.b .def_524))
(define-fun .def_526 () Bool (= .def_525 1))
(define-fun .def_529 () Bool (or .def_526 .def_528))
(define-fun .def_520 () Bool (= call__PRODUCER_CONSUMMER_.b call__PRODUCER_CONSUMMER_.ite4.next))
(define-fun .def_521 () Bool (or call__PRODUCER_CONSUMMER_.garde2.next .def_520))
(define-fun .def_513 () Int (* (- 1) call__PRODUCER_CONSUMMER_.ite4.next))
(define-fun .def_514 () Int (+ call__PRODUCER_CONSUMMER_.b .def_513))
(define-fun .def_515 () Bool (= .def_514 1))
(define-fun .def_518 () Bool (or .def_515 .def_517))
(define-fun .def_507 () Int (* (- 1) call__PRODUCER_CONSUMMER_.ite3.next))
(define-fun .def_508 () Int (+ call__PRODUCER_CONSUMMER_.b .def_507))
(define-fun .def_509 () Bool (= .def_508 (- 1)))
(define-fun .def_500 () Bool (not call__PRODUCER_CONSUMMER_.garde1.next))
(define-fun .def_510 () Bool (or .def_500 .def_509))
(define-fun .def_505 () Bool (= call__PRODUCER_CONSUMMER_.b call__PRODUCER_CONSUMMER_.ite3.next))
(define-fun .def_506 () Bool (or call__PRODUCER_CONSUMMER_.garde1.next .def_505))
(define-fun .def_511 () Bool (and .def_506 .def_510))
(define-fun .def_519 () Bool (and .def_511 .def_518))
(define-fun .def_522 () Bool (and .def_519 .def_521))
(define-fun .def_530 () Bool (and .def_522 .def_529))
(define-fun .def_533 () Bool (and .def_530 .def_532))
(define-fun .def_497 () Int (* (- 1) call__PRODUCER_CONSUMMER_.ite.next))
(define-fun .def_498 () Int (+ call__PRODUCER_CONSUMMER_.i .def_497))
(define-fun .def_499 () Bool (= .def_498 1))
(define-fun .def_501 () Bool (or .def_499 .def_500))
(define-fun .def_494 () Bool (= call__PRODUCER_CONSUMMER_.i call__PRODUCER_CONSUMMER_.ite.next))
(define-fun .def_496 () Bool (or .def_494 call__PRODUCER_CONSUMMER_.garde1.next))
(define-fun .def_502 () Bool (and .def_496 .def_501))
(define-fun .def_490 () Bool (not param_etat3.next))
(define-fun .def_489 () Bool (= call__PRODUCER_CONSUMMER_.ite11.next call__PRODUCER_CONSUMMER_.ite10.next))
(define-fun .def_491 () Bool (or .def_489 .def_490))
(define-fun .def_485 () Bool (= call__PRODUCER_CONSUMMER_.o2 call__PRODUCER_CONSUMMER_.ite11.next))
(define-fun .def_487 () Bool (or .def_485 param_etat3.next))
(define-fun .def_492 () Bool (and .def_487 .def_491))
(define-fun .def_479 () Bool (= call__PRODUCER_CONSUMMER_.ite9.next call__PRODUCER_CONSUMMER_.ite8.next))
(define-fun .def_481 () Bool (or .def_479 .def_480))
(define-fun .def_475 () Bool (= call__PRODUCER_CONSUMMER_.o1 call__PRODUCER_CONSUMMER_.ite9.next))
(define-fun .def_477 () Bool (or .def_475 param_etat2.next))
(define-fun .def_482 () Bool (and .def_477 .def_481))
(define-fun .def_468 () Bool (= call__PRODUCER_CONSUMMER_.ite2.next call__PRODUCER_CONSUMMER_.ite.next))
(define-fun .def_470 () Bool (or .def_468 .def_469))
(define-fun .def_464 () Bool (= call__PRODUCER_CONSUMMER_.i call__PRODUCER_CONSUMMER_.ite2.next))
(define-fun .def_466 () Bool (or .def_464 param_etat1.next))
(define-fun .def_471 () Bool (and .def_466 .def_470))
(define-fun .def_473 () Bool (and .def_471 flby.next))
(define-fun .def_483 () Bool (and .def_473 .def_482))
(define-fun .def_493 () Bool (and .def_483 .def_492))
(define-fun .def_503 () Bool (and .def_493 .def_502))
(define-fun .def_534 () Bool (and .def_503 .def_533))
(define-fun .def_542 () Bool (and .def_534 .def_541))
(define-fun .def_550 () Bool (and .def_542 .def_549))
(define-fun .def_553 () Bool (and .def_550 .def_552))
(define-fun .def_556 () Bool (and .def_553 .def_555))
(define-fun .def_558 () Bool (and .def_556 .def_557))
(define-fun .def_561 () Bool (and .def_558 .def_560))
(define-fun .def_565 () Bool (and .def_561 .def_564))
(define-fun .def_568 () Bool (and .def_565 .def_567))
(define-fun .def_571 () Bool (and .def_568 .def_570))
(define-fun .def_574 () Bool (and .def_571 .def_573))
(define-fun .def_586 () Bool (and .def_574 .def_585))
(define-fun .def_589 () Bool (and .def_586 .def_588))
(define-fun .def_592 () Bool (and .def_589 .def_591))
(define-fun .def_659 () Bool (and .def_592 .def_658))
(assert .def_659)
